33D32945 STP File, STP Format Version 1.0

SECTION Comments
Name "cube_n13_d2_s16"
Problem "Euclidean Steiner Tree Problem"
Remark "Generated with STPGenerator. 2 dimensions."
END

SECTION Graph
Nodes 13
END

SECTION Coordinates
DD 0 0.2154374701 0.0895364271
DD 1 0.3215230151 0.5994994997
DD 2 0.9209823329 0.0083380486
DD 3 0.2498201687 0.6923724262
DD 4 0.3582976681 0.8231695224
DD 5 0.1180784167 0.5551794663
DD 6 0.3833639991 0.2886057418
DD 7 0.8238008194 0.3094491373
DD 8 0.8584360545 0.6783925484
DD 9 0.0389199243 0.0333043621
DD 10 0.0983172874 0.3055314134
DD 11 0.1783176238 0.3670024752
DD 12 0.0997784725 0.5895236719
END
